
 102   30
  10   10   10   10   10   10   10   10   10   10   10   10   10   10   10   10   10   10   10   10   10   10   10   10   10   10   10   10   10   10

   0   0   0   0   0   0   0   0   0   0   0   0   0   0   0   0   0   0   0   0   0   0   0   0   0   0   0   0   0   0   0  28 2 3 4 5 6 7 8 9 10 11 12 13 14 16 17 18 19 21 22 24 27 28 30 33 34 37 39 62 
   1   0   0   0   0   0   0   0   0   1   0   0   0   0   0   1   0   0   1   0   0   0   0   0   0   0   0   0   0   0   0  17 100 81 73 64 61 60 57 55 52 47 46 41 40 31 29 25 15 
  10   0   3   0   0   1   0   0   0   0   0   0   0   0   0   7   0   0   0   0   4   0   0   0   0   0   0   0   1   4   0  14 99 80 73 64 63 58 56 54 44 43 41 40 38 23 
   8   0   0   0   0   0   0   0   0   0   0   0   0   0   0   8   0   0   0   0   0   0   0   0   0   0   0   0   0   0   0  10 80 63 56 53 52 50 45 41 23 20 
   9   0   0   0   0   0   1   0   0   0   0   0   0   1   0   0   0   1   0   1   0   0   0   0   0   0   0   0   0   0   0  10 101 71 64 63 54 50 49 47 32 26 
   8   0   0   5   0   0   0   0   0   0   3   0   0   0   0   7   0   0   0   0   5   0   0   0   0   0   0   0   0   0   0  10 99 73 71 65 58 54 50 46 42 23 
   8   0   0   0   0   0   0   0   0   0   0   0   0   0   0   0   0   0   0   9   0   0   0   1   0   0   0   1   7   0   0   9 101 81 80 78 67 56 46 45 20 
   2   0   0   2   3   0   0   0   0   0   4   0   0   0   0   6   0   0   0   0   0   0   2   0   0   0   0   0   0   0   1  19 101 100 99 98 81 80 76 72 71 64 61 60 59 58 57 55 54 51 47 
   9   1   0   0   0   0   0   0   1  10   0   0   0   0   0   0   0   0   0   0   0   0   0   0   0   2   0   0   0   0   0  14 101 100 99 95 80 72 66 61 56 54 48 47 42 41 
   9   8   0   0   0   0   0   0   0   0   0   0   0   0   0   0   0   0   0   0   0   1   0   6   0   0   0   0   0   0   0  14 101 100 99 81 79 71 65 64 59 58 57 47 42 31 
   5   8   0   0   0   0   0   0   0   3   0   0   0   0   0   0   0   0   7   0   0   0   0   0   3   0   1   0   0   0   0   9 101 74 59 54 53 49 46 42 35 
   1   4   0   0   0   0   9   0   0   0   0   0   0   0   1   0   0   0   0   0   0   0   0   0   0   0   0   0   0   4   0  14 101 100 99 95 81 78 77 70 66 64 56 54 44 41 
   1   0   0   7   0   0   0   0   0   0   0   0   0   0   8   0   0   0   0   0   0   0   0   0   0   0   0   0   0   0  10  13 99 95 80 78 72 61 59 58 57 56 55 44 42 
   2   0   0   0   0   0   0   0   0   0   0   1   0   0   0   0   0   0   0   0   0   0   0   0   0   0   0   4   0   0   0  11 99 80 78 72 66 57 54 52 51 42 41 
  10   0   0   6   0   0   0   0   0   0   0   0   0   0   0   0   0   0   0   0   0   0   0   0   0   0   5   0   0   0   0  15 101 99 96 80 78 77 76 75 74 70 67 65 56 54 36 
   7   0   6   4   0   0   4   0   0   0   0   0   0   0   0   0   0   0   1   0   0   0   0   0   0   6   0   0   0   0   7  14 98 97 81 80 78 77 72 71 68 59 51 47 46 44 
   5   0   0   0   0   0   7   0   0   0   0   6   0   0   0   0   1   0   9   0   0   0   0   0   0   5   0   0   0   0   0  16 101 95 90 81 80 78 77 74 68 67 65 64 59 58 47 44 
   5   0   0   0   0   5   6   1   0   0   0   0   0   0   0   0   0   7   0   0   0   0   5   8   0   0   0   0   0  10   0  12 100 76 73 71 69 65 60 59 57 54 53 45 
   6   0   0   0   0   0   0   0   0   0   0   0   0   8   0   8   0   0   0   0   0   0   0   0   0   0   0   0   0   0   0  11 101 100 95 79 71 61 60 59 58 54 42 
   1   0   3   0   0   0   0   0   0   0   0   0   0   5   0   0   0   5   0   0   0   0   0   0   0   0   0   0   0   0   0  13 100 99 91 90 71 66 64 61 59 58 57 54 44 
   7   0   0   0   0   0   0   0   0   0   0   0   0   0   0   0   7   0   0   0   5   0   0   0   0   0   0   0   0   0   0  13 98 97 81 80 78 72 71 69 68 65 64 51 46 
   2   0   0   0   2   0   0   4   0   0   0   0   0   7   0   6   0   0   7   0   0   0   0   4   0   0   5   0   0   0   0  15 101 98 95 92 91 78 77 75 69 67 65 64 58 54 48 
   6   0   7   8   0   0   0   0   0   0   0   0   0   0   0   0   0   0   0   0   0   0   0   0   5   0   0   0   0   0   0  12 101 100 81 79 78 72 68 66 61 60 59 48 
   5   0   0   0   0   0   7   0   0   0   0   0   1   0   0   0   0   0   0   0   0   0   0   0   2   0   0   7   0   0   0  13 100 99 97 96 95 93 89 86 76 65 59 57 47 
   7   8   0   0   0   0   0   8   0   0   9   0   0   0   0   0   0   0   0   0   0   0   0   0   0   8   0  10   0   0   0   9 101 99 95 94 92 74 66 54 42 
   9   0   0   0   7   0   0   0   0   0   0   6   0   7   7   0   0   0   0   0   0   0   0   0   0   2   0   0   0   8   0   8 99 95 94 86 78 60 59 42 
   9   0   0   0  10   0   0   0   0   0   0   0   5   0   0   0   0   0   0   0   0   0   0   0   0   0   8   0   0   0   0   8 95 92 91 74 64 58 54 42 
   4   5   5   0   0   0   0   0   0   0   0   0   0   0   0   0   0   0   0   0   0   0   0   0   0   9   4   0   0   0   0  12 95 94 93 90 81 78 76 71 69 68 57 54 
   7   0   0   0   0   0   0   0   0   0   5   0   6   0   0   0   0   9   0   3   0   0   0   4   0   0   0   0   0   0   0  11 99 98 97 94 76 72 71 70 69 68 45 
   7   0   0   0   0   0   0   0   0   0   0   0   0   0   0   0   0   0   0   0   0   0   0   0   5   0  10   0   0   6   0   7 90 88 80 79 61 60 52 
   4   0   0   0   0   0   0   0   7   7  10   0   0   0   0   0   0   0   0   0   0   0   0   0   0   0   0   0   5   0   0  13 98 95 94 93 92 91 85 78 76 74 72 68 54 
   2   0   6   0   0   0   0   0   0   0   0   0   0   3   0   0   0   0   0   0   0   0   0   2   6   0   0   0   0   0   0  11 100 90 89 81 80 76 75 72 69 58 57 
   7   0   0   0   0   0   0   0   0   0   0   0   0   0   0   0   0   0   0   0   0   0   0   0   0   8   0   3   0   0   0  10 97 96 94 93 86 76 74 72 68 47 
   7   0   0   0   0   0   0   0   0   5   0   0   0   0   0   0   0   0   0   0   4   0   0   0   0   0   0   0   0   0   0  10 98 95 94 92 90 76 71 69 58 50 
   1   3   0   0   0   0   0   0   0   0   7   0   0   0   0   0   0   0   0   0   0   0   0   0  10   0   0   0   8   0   0  14 100 99 97 96 90 87 86 80 78 77 75 71 70 69 
   7   0   0   0   0   0   0   0   0   0   0   0   4   9   0   0   0   0   0   4   0   0   3   0   0   0   0   6   0   0   0  10 98 97 95 94 90 84 79 71 59 58 
   8   0   0   0   0   0   0   7   0   0   0   0   0   0   0   0   0   0   0   0   0   0   0   0   0   0   3   0   5   0   0   9 98 94 91 89 88 80 75 74 52 
   2   0   0   0   0   0   3   0   0   0   0   0   7   6   0   3   0   0   0   8   0   5   0   0   0   0   0   0   0   0   0  12 96 91 90 89 88 87 86 74 70 69 68 65 
  10   0   0   0   0   0   0   0   0   0   0   0   0   7   0   0   0   0   0   0   7  10   0   0   0   0   0   0   0   0   0   8 99 98 95 92 91 89 58 57 
   7   0  10   0   0   0   7   0   0   0   0   2   8   7   9   0   0   0   0   0   0   0   0   5   9   0   0   0   0   0   0  11 96 94 93 90 89 86 76 75 74 70 59 
   7   0   0   0   0   0   0   0   0   0   0   0   0   0   0   0   0   0   0   0  10   0   0  10   0   0   0   0   0   5   0   9 98 97 90 87 79 76 74 71 67 
   3   0   0   0   9   0   0   0   0   0   0   5   7   0   0   0   0   0   6   0   0   0  10   0   0   0   0   0   0   6   0  10 98 97 96 93 90 89 77 76 69 68 
   7   6   0   0   0  10   0   0   0   0   0   0   0   3   3   0   0   0   6   0   5   8   0   0   0   0   0   0   0   0   7  11 96 95 91 90 88 87 86 85 75 74 72 
   9   6   0   6   0   0   0   0   0   0   0   0   0   5   6   0   0   0   0   0   0   8   0   8   0   0   0   0   7   0   0   8 94 93 89 88 86 83 76 60 
   4   6   0   0   0   0   0   0   0   0   0   0   0   0   0   9   0   0   0   0   0   0   0   0   0   0   0   0   0   0   0   8 95 91 89 85 84 83 74 58 
   1   0   0   0   0   0   0   0   0   0   0   0   0   6   0   0   0   8   0   0   0   0   0   7   0   0   0   0   0   0   0   8 96 95 88 87 86 85 75 70 
   4   0   0   3   0   0   0   0   0   0   0   0   0   0   0   9   0   0   0   0   0   0  10   0   0   8   0   0   0   0   7   7 92 91 88 87 75 70 69 
   6   0   0   0   0   0   0   0   0   0   0   0   0   5   0   0   0   7   0   0   0   5   0   0   0   0   0   0   0   0   0   5 90 89 88 87 57 
   2   0   0  10   0   0   0   0  10   0   0   7   0   0   0   0   0   0   0   0   0   0   0   0   0   0   6   0   0   0   0   4 94 79 69 58 
   9   0   0   7   0   0   0   0   0   0   0   0   0   0   0   0   0   0   0   7   0   0   0   0   0   0   0   0   0   0   0   9 97 89 88 87 86 85 84 83 74 
  10   0   0   0   5   0   0   0   0   5   7   0   0   0   0   0   0   0   0   0   0   6   0   0   0   5   0   0   0   0   0   8 95 90 88 87 86 84 79 74 
   6   0   0   0   0   0   0   0   0   0   0   0   0   6   0   7   0   0   0   0   0   0   0   8   7   0   8   0   0   0   0   6 95 92 86 76 70 69 
  10   0   0   0   0   0   0   0   0   0   0   7   0   0   0   0   0   5   0   0   0   4   0   0   0   5   0   7   0   0   0   8 99 91 90 89 87 86 83 82 
   6   0   9   0   0   0   4   0   0   0   0   0   0   0   0   6   0   0   0   0   0   0   8   5   7   0   5   9   0   0   5   7 97 89 87 86 84 83 82 
   9   0   0   8   0   0   7   0   0   0   0   0   0   0   0   0   0   0   3   0   0   0   0   0   0   0   0   0   0   0   0   7 91 90 89 87 85 84 83 
  10   0   0   0   6   0   7   0   0   0   0   0   0   0   0   0   0   0   0   0   0   0   0   0   0   0   0   0   0   9   0   5 92 90 86 84 69 
   8   4   0   0   0   0   6   0   0   0   5   0   0   6   0   7   0   0   0   0   0   0   0   0   0   0   0   0   0   0   0   3 85 74 70 
   9   0   0   0   0   0   0   0   0   6   0   0   9   0   0   0   6   0   0   0   0   5   0   0   0   0   0   0   3   0   0   5 93 88 87 86 82 
   3   0   0   0   0   0   0   0   0   7   0   0   0  10   0   0   0   6   0   7   0   0   0   0   0   6   0   0   0   0   0   5 92 88 87 83 82 
   9   0   0   0   0   0   0   7   0   0   6   0   0   0   0   0   0   0   0   0   4   0   0   0   0   0   0   0   0   0   0   4 96 87 84 75 
   1   0   0   0   0   4   0   0   0   0   0   0   0   0   0   0   0   0   0   0   0   0   0   5   0   0   0   0   0   0   0   3 94 77 74 
   1   0   0   0   0   0   0   0   0   0   8   0   5   5   0   0   0   0   0   0   0   0   0   0   0   0   0   0   0   0   9   4 96 93 83 82 
   6   8   0   0   0   0   0   0   0   0   0   8   0   0   0   0   0   7   0   0   7   0   0   0   0   0   9   0   0   0   0   3 89 86 74 
   7   0   0   0   0   0   4   0   0   0   5   0   0   0   0   0   0   0   0   0   0   0   0   0   0   0   0   6   0   0   0   3 93 87 83 
   5   0   4   0   0   5   0   0   0   0   0   0   0   0   4   6   0   5   0   0   0   0   0   0   0   0   0   7   0   0   0   3 94 85 82 
   5   0   0   0   0   0   0   0   0   0   7   0   0   0   8   0   0   5   0   0   0   8   0   0   0   0   0   0   0   0   0   3 86 85 82 
   6   0   0   0   0   0   0   0   0   0   0   0   0   0   0   6   0   5   0   8   5   0   0   0   0   0   0   0   0   0   0   3 86 85 83 
   2   0   0   0   0   0   0   0   0   0   0   0   0   0   6   0   0   0   0   0   0   0   0   0   0   0   0   0   8   2   7   2 84 75 
   8   0   8   0   0   0   0   0   0   4   0   0   0   4   0   0   0   0   0   0   0   0   0   0   0  10   0   0   0   0   0   2 85 82 
   9   0   0   6   0   7   0   0   6   0   0   8   0   6   0   0   0   6  10   0   0   0   0   0   5   0   0   0   0   0   0   2 84 83 
   4   0   0   0   0   0   0   0   0   7   0   0   0   0   0   0   0   0   0   0   0   0   0   7   0   0   0   0   0   0   0   2 89 85 
   6   0   0   0   0   0   0   5   0   0   0   8   0   0   0   0   0   0   0   0   0   0   5   0   0   0   0   0   0   0   0   2 83 82 
   2   0   0   0   0   0   0   0   9   7   0   0   0   0   0   5   0   0   0   0   0   0   0   0   0   0   0   0   0   0   0   2 90 84 
   9   0   0   0   0   0   0   0   0   0   0   0   0   0   0   0   0   0   0   7   0   0   0   0   0   0   9   8   0   0   4   1 82 
   8   0   0   0   0   0   0   0   0   0   0   0   0   0   0   4   0   0   0   0   0   0   0   0  10   0   0   5   0   0   0   1 82 
   9   0   0   0   0   0   0   0   3   0   5   0   0   0   5   0   0   0   0   0   0   0   0   0   1   0   0   4   5   0   0   1 84 
   1   0   0   0   0   0   0   0   0   0   0   0   0   0   0   0   0   0   0   0   0   0   4   0   0   0   0   0   0   0   4   1 83 
   7   0   0   0   0   0   0   0   0   0   0   0   0   0   0   0   7   0   0   0   0   0   0   0   0   0   0   0   0   0   0   1 88 
   9   0   0   0   0  10   8   0   0   0   0   0   0   0   0   3   0   5   0   0   0   0   0   0   0   0   0   4   0   0   0   1 91 
   6   0   0   5   0   0   0   0   0   0   0   0   0   0   0   0   0   0   0   0   0   0   0   0   0   0   0   0   0   0   0   1 82 
   1   0   0   0   0   8   0   0   0   0   7   0   0   0   0   0   0   9   3   0   0   0   8   0   0   7   0   0   0   0   0   1 92 
   5   0   0   0   0   0   0   0   0   6   0   0   0   0   0   0   6   0   0   0   0   0   0   0   0   0   0   0   0   0   0   1 102
   6   0   0   0   0   0   0   0   0   0   0   0   0   0   0   0   0   0   6   0   5   0   0   0   0   7   0   0   0   0   0   1 102
   1   0   0   0   0   0   7   8   0   0   0   0   0   0   0   0   6   0   0   0   0   0   0   0   0   5   0   0   0   0   0   1 102
   5   0   0   0   0   0   0   0   0   0   4   0   0   0   0   0   0   0   0   0   0   3   0   0   0   0   0   0   7   0   0   1 102
   2   0   0   0   0   0   0   8   3   0   0   0   0   0   0   0   9   0   0   0   0   0   0   0   0   0   0   5   0   0   0   1 102
   1   9   0   0   0   0   0   0   0  10   3   5   0   0   0   0   0   0   0   0   0   0   0   0   0   0   0   0  10   0   0   1 102
   2   0   0   0   0   0   0   0   0   0   0   0   0   0   0   0   0   0   0   0   0   0   0   0   0   0   0   0   0   0   0   1 102
   5   0   0   0   0   2   0   0   0   0   0   0   0   0   0   0   0   0   9   0   0   0   0   0   0   0   0   0   0   0   0   1 102
   6   6   0   0   0   0   0   0   0   0   0   0   0   0   9   0   0   0   0   0   7   0   0   0   0   0   7   0   0   6   5   1 102
  10   0   0   7   8   0   9   0   0   0   0   0   0   0   0   0   0   0   0   0   0   0   0   0   0   0   0   0   0   0   0   1 102
   9   0   0   0   0   0   0   0   0   0   0   0   8   0   0   0   0   0   0   0   0   0   0   9   0   0   0   7   0   0   0   1 102
   3   0   0   0   0   0   0   0   0   0   0   0   0   0   0   0   0   0   0   0   0   0   0   0   0   0   0   0   0   0   0   1 102
   7   0   0   0   0   0   0   0   0   0   0   0   0   0   0   0   0   0  10   0   0   7   0   0   5   0   0   0   0   0   0   1 102
   6   0   0   6   0   0   0   0   0   0   0   9   0   0   0   0   0   0   0   6   0  10   5   0   0   0   0   0   0   0   0   1 102
   6   0   0   0   0   9   0   7   0   0   0   0   0   0   0   0   0   0   0   0   0   0   0   0   0   0   4   5   0   0   0   1 102
   3   0   0   0   0   0   0   0   9   0   7   0   0   0   0   0   0   0   0   0   0   4   0   0   0   3   0   0   0   0   0   1 102
   5   0   0   0   4   0   0   0   0   0   0   0   0   0   0   0   0   0   0   0   0   0   0   0   0   0   0   0   0   0   0   1 102
   2   0   0   0   0   0   0   0   0   0   0   0   0  10   0   0   0   0   0   0   0   0   0   7   0   0   0   0   0   0   0   1 102
   7   0   5   0   0   0   0   0   0   0   0   0   6   0   0   0   0   0   0   0  10   0   0   0   0   0   0  10   0   0   0   1 102
   3   8   0   0   0   5   0   5   0   0   0   0   0   0   0   0   0   0   0   0   0   0   0   0   9   0   0   0   0   0   0   1 102
   0   0   0   0   0   0   0   0   0   0   0   0   0   0   0   0   0   0   0   0   0   0   0   0   0   0   0   0   0   0   0   0 
